31532 41859 
30535 41985 
31932 41734 
31017 41925 
31626 41810 
30629 41936 
32264 41573 
32424 41567 
32943 41271 
32066 41656 
33125 41231 
31806 41784 
33249 41130 
31406 41909 
33728 40895 
34298 40480 
33444 41002 
32837 41289 
33538 40953 
34590 40265 
32549 41519 
34207 40497 
35109 39852 
32149 41644 
